DIMACS_lns/graph-1000-268.col
p edge 1000 1828
e 1 818
e 1 124
e 1 579
e 1 158
e 1 958
e 1 432
e 3 383
e 3 903
e 3 225
e 3 539
e 4 724
e 4 404
e 4 892
e 5 877
e 5 682
e 5 692
e 5 456
e 6 36
e 6 505
e 6 542
e 6 495
e 7 894
e 7 553
e 7 206
e 7 502
e 7 484
e 7 911
e 7 220
e 9 963
e 9 636
e 9 526
e 9 275
e 9 154
e 9 73
e 9 772
e 9 804
e 9 918
e 10 806
e 10 1000
e 10 165
e 10 260
e 10 499
e 10 501
e 10 373
e 11 551
e 11 752
e 11 149
e 11 758
e 12 472
e 12 237
e 12 931
e 12 756
e 13 67
e 13 525
e 13 248
e 13 29
e 13 280
e 13 793
e 13 135
e 14 282
e 14 157
e 14 266
e 14 911
e 14 295
e 14 366
e 14 48
e 15 209
e 15 908
e 15 628
e 17 438
e 17 254
e 17 661
e 17 300
e 17 466
e 18 653
e 18 50
e 18 269
e 19 310
e 19 778
e 19 409
e 20 253
e 20 721
e 20 763
e 20 690
e 20 413
e 21 527
e 21 225
e 21 129
e 21 818
e 21 140
e 21 796
e 21 86
e 22 337
e 22 310
e 22 935
e 25 387
e 25 864
e 25 129
e 25 162
e 25 233
e 27 864
e 27 143
e 27 954
e 27 151
e 29 510
e 29 178
e 29 32
e 29 654
e 29 639
e 30 64
e 30 489
e 30 945
e 31 926
e 31 289
e 31 900
e 31 526
e 31 623
e 32 115
e 32 491
e 32 249
e 32 906
e 32 242
e 34 601
e 34 553
e 34 453
e 34 41
e 34 351
e 34 238
e 35 211
e 35 893
e 35 330
e 35 178
e 35 678
e 36 287
e 36 881
e 36 735
e 36 85
e 39 438
e 39 903
e 39 734
e 39 908
e 40 206
e 40 264
e 40 234
e 41 409
e 41 776
e 41 964
e 42 531
e 42 675
e 42 243
e 42 237
e 42 343
e 45 410
e 45 188
e 45 485
e 46 646
e 46 711
e 46 666
e 47 356
e 47 198
e 47 380
e 47 683
e 47 97
e 47 884
e 48 593
e 48 932
e 48 437
e 49 558
e 49 472
e 49 101
e 49 916
e 49 425
e 50 115
e 50 924
e 50 803
e 53 216
e 53 522
e 53 502
e 55 501
e 55 314
e 55 651
e 55 712
e 55 762
e 55 652
e 56 355
e 56 432
e 56 282
e 61 489
e 61 141
e 61 97
e 61 793
e 61 425
e 61 174
e 61 890
e 62 554
e 62 1000
e 62 253
e 63 925
e 63 680
e 63 203
e 64 182
e 64 268
e 64 761
e 64 266
e 64 564
e 64 575
e 65 712
e 65 97
e 65 954
e 65 122
e 67 577
e 67 196
e 67 365
e 67 82
e 67 905
e 67 453
e 67 319
e 69 605
e 69 219
e 69 509
e 69 262
e 69 986
e 69 399
e 69 903
e 70 657
e 70 456
e 70 693
e 70 888
e 71 651
e 71 738
e 71 958
e 73 825
e 73 735
e 73 580
e 73 564
e 74 492
e 74 726
e 74 943
e 75 314
e 75 956
e 75 797
e 75 277
e 76 773
e 76 354
e 76 551
e 76 679
e 76 468
e 76 785
e 79 162
e 79 228
e 79 997
e 79 689
e 79 253
e 81 389
e 81 424
e 81 780
e 81 652
e 82 772
e 82 156
e 82 797
e 82 406
e 82 546
e 82 203
e 84 750
e 84 654
e 84 459
e 84 107
e 85 907
e 85 669
e 85 859
e 86 648
e 86 498
e 86 599
e 86 572
e 87 156
e 87 930
e 87 255
e 88 119
e 88 835
e 88 690
e 91 481
e 91 194
e 91 666
e 92 894
e 92 918
e 92 429
e 93 711
e 93 208
e 93 812
e 93 426
e 93 245
e 93 623
e 96 350
e 96 987
e 96 880
e 97 784
e 97 760
e 97 978
e 98 213
e 98 847
e 98 160
e 98 452
e 98 518
e 100 557
e 100 470
e 100 673
e 101 434
e 101 264
e 101 198
e 101 625
e 102 644
e 102 713
e 102 314
e 102 436
e 102 851
e 102 111
e 102 958
e 102 903
e 103 320
e 103 993
e 103 319
e 104 766
e 104 839
e 104 439
e 104 631
e 105 336
e 105 327
e 105 523
e 105 731
e 106 820
e 106 994
e 106 528
e 107 646
e 107 196
e 110 734
e 110 751
e 110 519
e 110 237
e 110 718
e 111 481
e 111 519
e 111 122
e 113 550
e 113 198
e 113 308
e 113 115
e 113 811
e 113 229
e 113 762
e 113 555
e 113 403
e 115 920
e 115 766
e 115 979
e 115 211
e 115 450
e 115 439
e 118 996
e 118 367
e 118 636
e 118 851
e 118 655
e 119 673
e 119 735
e 119 858
e 119 239
e 119 425
e 120 444
e 120 158
e 120 319
e 120 498
e 120 129
e 121 385
e 121 899
e 121 575
e 121 766
e 122 820
e 122 717
e 122 187
e 123 309
e 123 710
e 123 143
e 123 972
e 124 198
e 124 125
e 125 590
e 125 759
e 127 978
e 127 599
e 127 609
e 127 725
e 127 412
e 127 246
e 127 366
e 129 922
e 129 676
e 129 332
e 129 269
e 130 557
e 130 375
e 130 468
e 131 653
e 131 469
e 131 297
e 131 676
e 131 803
e 132 692
e 132 484
e 132 673
e 133 434
e 133 719
e 133 824
e 133 443
e 135 155
e 135 373
e 135 463
e 135 743
e 135 779
e 136 865
e 136 798
e 136 742
e 136 669
e 136 810
e 137 265
e 137 387
e 137 600
e 137 211
e 138 641
e 138 623
e 138 496
e 138 653
e 139 510
e 139 787
e 139 464
e 139 169
e 139 435
e 139 293
e 140 812
e 140 613
e 140 400
e 140 558
e 141 438
e 141 600
e 142 801
e 142 890
e 142 958
e 143 520
e 143 768
e 143 945
e 143 943
e 143 808
e 144 603
e 144 825
e 144 565
e 144 605
e 145 968
e 145 872
e 145 594
e 147 602
e 147 712
e 147 183
e 148 448
e 148 693
e 148 304
e 148 282
e 149 450
e 149 551
e 149 964
e 149 300
e 149 391
e 149 674
e 149 443
e 150 292
e 150 620
e 150 356
e 150 623
e 150 276
e 150 703
e 151 777
e 151 697
e 151 392
e 151 526
e 153 738
e 153 356
e 153 286
e 153 516
e 154 709
e 154 400
e 154 509
e 154 174
e 155 700
e 155 985
e 155 188
e 155 868
e 156 801
e 156 270
e 156 748
e 156 734
e 157 400
e 157 420
e 157 336
e 157 864
e 157 988
e 157 758
e 157 247
e 158 308
e 158 846
e 158 805
e 158 890
e 158 547
e 160 186
e 160 497
e 161 632
e 161 644
e 161 557
e 161 445
e 161 805
e 161 576
e 161 509
e 161 744
e 162 573
e 162 787
e 162 305
e 162 963
e 163 756
e 163 961
e 163 822
e 163 775
e 163 530
e 163 983
e 163 751
e 164 314
e 164 737
e 164 178
e 164 203
e 165 859
e 165 211
e 167 828
e 167 798
e 167 880
e 167 280
e 167 242
e 167 802
e 167 426
e 168 599
e 168 427
e 168 839
e 169 895
e 169 389
e 169 412
e 170 697
e 170 374
e 170 350
e 173 727
e 173 490
e 173 469
e 173 303
e 173 429
e 173 830
e 174 633
e 175 232
e 175 294
e 175 930
e 175 366
e 175 675
e 175 561
e 176 235
e 176 375
e 176 614
e 176 227
e 177 866
e 177 747
e 177 839
e 177 182
e 177 593
e 177 190
e 177 396
e 178 811
e 178 554
e 178 632
e 178 838
e 178 553
e 179 409
e 179 433
e 179 971
e 182 305
e 182 383
e 182 881
e 183 321
e 183 673
e 183 206
e 183 736
e 183 792
e 185 469
e 185 220
e 185 671
e 185 929
e 186 646
e 186 737
e 186 244
e 187 522
e 187 435
e 187 893
e 187 899
e 187 234
e 187 549
e 188 823
e 188 997
e 188 527
e 188 559
e 188 742
e 188 686
e 190 551
e 190 855
e 194 575
e 194 195
e 194 797
e 194 348
e 194 769
e 194 973
e 194 421
e 195 219
e 195 222
e 195 536
e 196 762
e 196 860
e 196 312
e 196 604
e 197 202
e 197 251
e 197 1000
e 197 625
e 197 640
e 198 687
e 198 927
e 200 746
e 200 702
e 200 469
e 201 296
e 201 365
e 201 287
e 201 824
e 201 760
e 201 237
e 202 329
e 202 653
e 202 253
e 202 883
e 203 941
e 203 724
e 203 254
e 205 765
e 205 507
e 205 628
e 205 779
e 205 565
e 205 227
e 205 606
e 206 507
e 206 527
e 207 736
e 207 775
e 207 992
e 207 988
e 207 355
e 208 512
e 208 220
e 208 751
e 208 422
e 209 546
e 209 549
e 211 450
e 211 437
e 211 933
e 211 419
e 212 611
e 212 761
e 212 553
e 212 543
e 212 652
e 212 684
e 212 586
e 212 606
e 212 951
e 212 254
e 213 282
e 213 827
e 213 293
e 213 960
e 213 260
e 213 583
e 214 220
e 214 434
e 214 387
e 214 768
e 214 480
e 214 906
e 215 439
e 215 751
e 215 950
e 216 475
e 216 685
e 219 633
e 220 1000
e 220 261
e 221 227
e 221 439
e 221 623
e 221 736
e 221 595
e 222 292
e 222 463
e 222 914
e 222 383
e 224 404
e 224 658
e 224 975
e 224 779
e 224 925
e 224 701
e 225 570
e 225 561
e 227 302
e 227 310
e 227 705
e 227 525
e 228 861
e 228 427
e 228 655
e 228 805
e 228 956
e 228 393
e 229 269
e 229 690
e 229 564
e 232 476
e 232 523
e 232 621
e 233 766
e 233 272
e 233 923
e 234 428
e 234 784
e 235 361
e 235 996
e 236 420
e 236 455
e 236 915
e 237 647
e 237 354
e 237 857
e 237 689
e 238 834
e 238 419
e 238 625
e 238 959
e 238 398
e 238 877
e 238 654
e 239 470
e 239 279
e 239 971
e 239 850
e 239 548
e 239 453
e 239 549
e 241 288
e 241 796
e 241 462
e 241 712
e 242 864
e 243 583
e 243 994
e 243 796
e 244 866
e 244 365
e 244 885
e 244 558
e 244 534
e 245 439
e 245 431
e 245 598
e 246 490
e 246 606
e 246 830
e 247 250
e 247 631
e 247 585
e 247 580
e 248 337
e 248 885
e 248 276
e 248 499
e 249 553
e 249 480
e 250 424
e 250 491
e 250 770
e 251 484
e 251 295
e 251 933
e 251 487
e 251 485
e 251 393
e 252 371
e 252 763
e 252 548
e 253 536
e 253 799
e 253 303
e 254 669
e 254 557
e 254 884
e 254 653
e 254 358
e 255 309
e 255 405
e 255 913
e 255 822
e 255 832
e 255 690
e 257 959
e 257 836
e 257 595
e 258 546
e 258 920
e 258 484
e 258 867
e 258 826
e 260 577
e 260 979
e 260 442
e 260 371
e 261 527
e 261 310
e 262 680
e 262 704
e 264 421
e 264 887
e 264 560
e 264 387
e 264 697
e 265 644
e 265 848
e 265 320
e 265 712
e 266 689
e 268 795
e 268 598
e 268 312
e 269 699
e 269 421
e 270 950
e 270 539
e 272 656
e 272 724
e 272 897
e 275 857
e 275 924
e 276 523
e 276 599
e 276 801
e 277 555
e 277 790
e 277 502
e 277 661
e 277 573
e 277 559
e 278 530
e 278 538
e 278 492
e 279 292
e 279 547
e 280 565
e 280 835
e 280 517
e 280 770
e 280 393
e 282 569
e 282 773
e 282 794
e 284 725
e 284 882
e 284 750
e 284 922
e 284 380
e 286 880
e 286 611
e 287 551
e 287 777
e 287 748
e 287 369
e 287 312
e 287 765
e 288 410
e 288 310
e 288 605
e 289 904
e 289 417
e 289 588
e 291 361
e 291 536
e 291 573
e 291 436
e 292 744
e 292 475
e 292 412
e 293 617
e 293 629
e 294 376
e 294 676
e 294 726
e 294 341
e 295 369
e 295 525
e 295 420
e 295 389
e 296 881
e 296 527
e 296 819
e 297 612
e 297 331
e 297 433
e 297 427
e 297 903
e 297 789
e 297 406
e 297 485
e 300 890
e 300 937
e 300 688
e 300 386
e 300 325
e 301 428
e 301 667
e 301 405
e 301 713
e 301 979
e 302 626
e 302 834
e 303 427
e 303 743
e 303 846
e 303 522
e 303 991
e 304 576
e 304 934
e 304 722
e 304 497
e 304 378
e 304 528
e 304 428
e 304 346
e 305 842
e 305 628
e 305 450
e 305 965
e 305 357
e 305 768
e 305 651
e 305 775
e 308 507
e 308 787
e 309 606
e 309 988
e 309 877
e 309 823
e 309 329
e 309 885
e 309 760
e 309 476
e 309 539
e 310 883
e 310 890
e 310 994
e 310 877
e 311 838
e 311 651
e 311 725
e 311 496
e 311 981
e 312 678
e 314 721
e 314 916
e 319 564
e 320 799
e 320 612
e 321 710
e 321 931
e 325 601
e 325 540
e 325 729
e 327 943
e 327 703
e 327 987
e 329 840
e 329 834
e 329 572
e 330 842
e 330 480
e 330 712
e 330 713
e 330 631
e 331 338
e 331 678
e 331 679
e 332 420
e 332 972
e 332 702
e 335 346
e 335 644
e 335 903
e 335 856
e 336 753
e 336 485
e 337 872
e 337 689
e 338 410
e 338 883
e 341 472
e 341 752
e 341 965
e 341 505
e 343 877
e 343 477
e 344 828
e 344 904
e 344 882
e 344 861
e 346 697
e 346 778
e 346 793
e 346 925
e 348 484
e 348 814
e 348 775
e 349 701
e 349 579
e 349 924
e 349 802
e 350 965
e 350 605
e 350 424
e 350 739
e 351 882
e 351 508
e 351 569
e 351 890
e 351 370
e 351 981
e 351 551
e 354 722
e 354 522
e 354 396
e 354 560
e 355 417
e 356 711
e 356 435
e 356 832
e 357 429
e 357 727
e 358 422
e 358 532
e 358 396
e 358 779
e 358 541
e 358 762
e 358 840
e 358 557
e 360 670
e 360 447
e 360 687
e 360 394
e 360 847
e 361 553
e 362 414
e 362 476
e 362 673
e 362 388
e 362 935
e 362 389
e 363 961
e 363 981
e 363 614
e 365 504
e 365 742
e 365 621
e 366 856
e 367 762
e 367 711
e 367 380
e 367 780
e 367 916
e 367 692
e 367 553
e 369 918
e 369 615
e 370 485
e 370 893
e 370 816
e 370 551
e 370 734
e 370 536
e 371 641
e 371 375
e 372 826
e 372 531
e 372 413
e 373 576
e 373 469
e 373 380
e 373 604
e 373 560
e 373 848
e 374 609
e 374 801
e 375 720
e 376 574
e 376 656
e 376 907
e 376 449
e 378 790
e 378 962
e 380 862
e 380 804
e 380 391
e 382 385
e 382 495
e 382 753
e 383 654
e 383 484
e 383 603
e 383 762
e 385 595
e 385 985
e 386 432
e 386 623
e 386 667
e 386 922
e 387 922
e 387 943
e 387 508
e 387 596
e 388 825
e 388 405
e 388 447
e 388 814
e 388 721
e 388 576
e 388 748
e 389 473
e 389 658
e 391 904
e 391 991
e 391 684
e 392 499
e 392 633
e 393 844
e 393 655
e 393 907
e 394 679
e 394 756
e 394 850
e 394 902
e 394 893
e 398 501
e 398 445
e 399 679
e 399 790
e 400 910
e 400 713
e 400 561
e 403 713
e 403 690
e 403 427
e 403 428
e 404 858
e 404 727
e 404 674
e 405 752
e 405 593
e 405 935
e 406 712
e 406 460
e 406 719
e 407 696
e 407 418
e 407 531
e 407 824
e 409 839
e 409 832
e 410 726
e 410 810
e 410 727
e 410 575
e 412 486
e 412 592
e 412 501
e 412 480
e 413 834
e 413 945
e 413 844
e 414 599
e 414 659
e 414 554
e 415 918
e 415 767
e 415 444
e 417 633
e 417 966
e 417 952
e 418 766
e 418 790
e 419 496
e 419 477
e 419 833
e 419 904
e 420 459
e 420 499
e 420 471
e 420 900
e 421 991
e 421 442
e 421 502
e 422 540
e 422 428
e 424 814
e 424 932
e 425 975
e 425 569
e 425 640
e 425 736
e 425 971
e 426 661
e 426 981
e 426 744
e 428 909
e 429 908
e 429 879
e 431 848
e 431 539
e 431 972
e 431 727
e 432 957
e 432 777
e 432 534
e 432 983
e 432 944
e 433 575
e 434 543
e 434 445
e 435 506
e 435 978
e 435 971
e 436 722
e 436 485
e 436 609
e 437 973
e 437 709
e 437 485
e 438 523
e 439 719
e 442 448
e 443 930
e 443 641
e 443 870
e 443 772
e 444 855
e 444 485
e 445 827
e 445 973
e 445 549
e 445 452
e 445 628
e 446 671
e 446 966
e 446 700
e 446 844
e 447 466
e 447 885
e 447 782
e 448 666
e 448 915
e 448 960
e 449 726
e 449 662
e 449 667
e 449 929
e 449 944
e 449 657
e 449 729
e 450 805
e 450 682
e 450 666
e 450 884
e 450 986
e 452 460
e 452 881
e 453 805
e 455 855
e 455 835
e 456 811
e 456 600
e 456 840
e 459 916
e 460 553
e 462 991
e 462 727
e 463 594
e 464 787
e 464 905
e 464 737
e 464 929
e 464 805
e 466 629
e 468 696
e 468 772
e 469 604
e 469 700
e 470 657
e 471 909
e 471 802
e 471 557
e 471 710
e 472 746
e 472 484
e 472 700
e 472 937
e 473 613
e 473 894
e 473 842
e 473 870
e 473 844
e 475 671
e 475 541
e 475 572
e 475 916
e 475 651
e 475 718
e 477 543
e 477 836
e 480 819
e 480 688
e 480 866
e 481 836
e 483 506
e 483 670
e 483 797
e 483 941
e 484 669
e 484 991
e 484 693
e 485 968
e 485 963
e 486 492
e 486 973
e 486 833
e 487 673
e 487 954
e 489 824
e 489 758
e 490 689
e 490 743
e 491 583
e 491 492
e 495 963
e 495 682
e 495 645
e 496 879
e 496 659
e 496 574
e 497 530
e 498 598
e 498 913
e 498 709
e 499 687
e 499 951
e 499 750
e 499 789
e 501 520
e 501 998
e 501 835
e 501 925
e 501 962
e 502 573
e 504 806
e 504 593
e 505 539
e 505 772
e 506 518
e 506 510
e 506 570
e 506 687
e 507 703
e 507 967
e 507 957
e 508 702
e 509 972
e 509 834
e 509 547
e 509 744
e 509 824
e 509 883
e 510 645
e 510 705
e 510 853
e 510 883
e 510 759
e 512 782
e 512 659
e 513 865
e 513 614
e 513 593
e 514 970
e 514 547
e 514 921
e 515 759
e 515 522
e 515 779
e 516 574
e 516 974
e 516 571
e 517 721
e 517 953
e 518 564
e 518 872
e 519 667
e 519 532
e 520 592
e 520 690
e 522 657
e 522 851
e 522 717
e 523 773
e 525 688
e 528 711
e 528 731
e 530 546
e 531 742
e 532 678
e 532 686
e 532 549
e 532 729
e 532 747
e 534 972
e 534 778
e 534 564
e 536 954
e 538 718
e 538 750
e 538 828
e 538 849
e 539 671
e 539 572
e 539 927
e 540 793
e 540 760
e 541 756
e 542 708
e 542 998
e 543 902
e 543 588
e 543 636
e 546 617
e 546 616
e 548 560
e 548 644
e 550 962
e 550 590
e 551 951
e 551 892
e 551 752
e 554 882
e 555 761
e 555 765
e 555 686
e 555 697
e 556 827
e 556 987
e 556 588
e 556 801
e 557 634
e 557 576
e 558 739
e 558 717
e 558 931
e 559 634
e 559 786
e 560 914
e 561 742
e 561 666
e 561 865
e 569 992
e 570 575
e 571 758
e 571 945
e 574 647
e 575 712
e 575 753
e 576 703
e 576 794
e 576 704
e 577 927
e 579 885
e 579 776
e 580 646
e 580 594
e 583 787
e 583 586
e 583 832
e 583 851
e 585 915
e 585 983
e 586 899
e 588 699
e 588 803
e 590 800
e 590 776
e 590 828
e 592 925
e 592 631
e 593 777
e 593 975
e 595 680
e 595 920
e 596 600
e 596 612
e 596 644
e 596 926
e 598 613
e 598 868
e 599 624
e 599 605
e 599 753
e 600 801
e 600 808
e 601 616
e 601 721
e 601 958
e 602 993
e 602 830
e 602 794
e 603 738
e 603 626
e 603 685
e 603 625
e 606 844
e 606 957
e 609 616
e 611 908
e 612 998
e 613 933
e 614 816
e 615 945
e 615 900
e 616 836
e 617 934
e 618 756
e 618 859
e 618 652
e 618 909
e 620 784
e 620 651
e 621 960
e 621 883
e 623 952
e 624 851
e 624 923
e 624 888
e 624 802
e 625 921
e 625 878
e 626 639
e 626 849
e 628 929
e 629 965
e 631 862
e 632 822
e 632 644
e 633 699
e 634 963
e 636 644
e 636 647
e 639 888
e 639 766
e 639 795
e 640 983
e 640 859
e 641 696
e 644 795
e 644 801
e 644 790
e 645 769
e 646 952
e 647 849
e 647 675
e 647 926
e 648 750
e 648 971
e 652 956
e 652 822
e 652 851
e 652 944
e 653 763
e 653 720
e 653 876
e 654 953
e 655 910
e 656 881
e 656 945
e 657 879
e 658 960
e 661 892
e 662 920
e 662 847
e 662 780
e 667 926
e 667 994
e 669 689
e 670 993
e 673 929
e 674 795
e 675 773
e 675 893
e 675 933
e 676 828
e 676 959
e 676 767
e 678 710
e 678 991
e 678 965
e 680 792
e 683 855
e 683 850
e 684 905
e 685 689
e 685 998
e 687 887
e 687 709
e 688 944
e 688 751
e 689 996
e 693 950
e 693 773
e 696 786
e 696 916
e 697 840
e 700 765
e 700 810
e 700 943
e 701 876
e 701 933
e 703 777
e 704 934
e 704 799
e 705 857
e 708 718
e 708 986
e 709 991
e 711 802
e 711 970
e 711 945
e 712 786
e 713 833
e 720 844
e 721 923
e 722 913
e 722 864
e 722 900
e 724 793
e 724 765
e 726 805
e 727 797
e 731 850
e 735 859
e 735 739
e 736 832
e 737 906
e 737 867
e 737 761
e 738 758
e 738 858
e 739 812
e 741 983
e 741 785
e 741 779
e 742 892
e 742 754
e 743 855
e 744 954
e 746 846
e 747 796
e 748 804
e 748 914
e 751 988
e 752 865
e 753 973
e 754 996
e 754 895
e 754 878
e 756 800
e 756 882
e 759 860
e 759 861
e 759 785
e 760 1000
e 760 855
e 760 827
e 761 802
e 762 827
e 765 786
e 767 895
e 767 833
e 769 959
e 769 810
e 770 864
e 775 957
e 776 822
e 779 824
e 779 855
e 779 849
e 780 925
e 782 923
e 784 856
e 789 894
e 789 965
e 789 838
e 790 876
e 792 804
e 793 893
e 793 956
e 795 996
e 795 802
e 795 835
e 796 932
e 798 935
e 799 803
e 799 878
e 800 827
e 801 888
e 804 879
e 804 1000
e 804 826
e 805 819
e 805 848
e 806 876
e 806 974
e 808 816
e 810 895
e 810 966
e 810 993
e 811 910
e 811 972
e 814 867
e 818 998
e 818 929
e 818 832
e 819 870
e 820 853
e 822 893
e 823 908
e 823 864
e 827 870
e 830 931
e 832 870
e 832 930
e 833 907
e 833 905
e 834 932
e 836 907
e 839 921
e 840 975
e 842 915
e 846 934
e 849 908
e 849 927
e 850 991
e 851 853
e 856 888
e 856 967
e 857 951
e 858 920
e 860 870
e 862 867
e 862 961
e 864 979
e 864 943
e 865 937
e 867 876
e 868 924
e 876 881
e 877 934
e 878 880
e 884 893
e 884 906
e 885 904
e 887 924
e 890 973
e 892 985
e 894 979
e 895 927
e 895 961
e 897 918
e 897 983
e 902 970
e 904 979
e 905 937
e 906 939
e 908 968
e 909 911
e 909 971
e 921 950
e 923 939
e 924 951
e 926 939
e 931 937
e 931 974
e 931 998
e 932 935
e 933 988
e 935 992
e 939 994
e 941 985
e 941 968
e 944 967
e 953 964
e 973 986
e 983 997
