txt_Ins/graph-1000-268.txt
n 1000
e 0 817
e 0 123
e 0 578
e 0 157
e 0 957
e 0 431
e 2 382
e 2 902
e 2 224
e 2 538
e 3 723
e 3 403
e 3 891
e 4 876
e 4 681
e 4 691
e 4 455
e 5 35
e 5 504
e 5 541
e 5 494
e 6 893
e 6 552
e 6 205
e 6 501
e 6 483
e 6 910
e 6 219
e 8 962
e 8 635
e 8 525
e 8 274
e 8 153
e 8 72
e 8 771
e 8 803
e 8 917
e 9 805
e 9 999
e 9 164
e 9 259
e 9 498
e 9 500
e 9 372
e 10 550
e 10 751
e 10 148
e 10 757
e 11 471
e 11 236
e 11 930
e 11 755
e 12 66
e 12 524
e 12 247
e 12 28
e 12 279
e 12 792
e 12 134
e 13 281
e 13 156
e 13 265
e 13 910
e 13 294
e 13 365
e 13 47
e 14 208
e 14 907
e 14 627
e 16 437
e 16 253
e 16 660
e 16 299
e 16 465
e 17 652
e 17 49
e 17 268
e 18 309
e 18 777
e 18 408
e 19 252
e 19 720
e 19 762
e 19 689
e 19 412
e 20 526
e 20 224
e 20 128
e 20 817
e 20 139
e 20 795
e 20 85
e 21 336
e 21 309
e 21 934
e 24 386
e 24 863
e 24 128
e 24 161
e 24 232
e 26 863
e 26 142
e 26 953
e 26 150
e 28 509
e 28 177
e 28 31
e 28 653
e 28 638
e 29 63
e 29 488
e 29 944
e 30 925
e 30 288
e 30 899
e 30 525
e 30 622
e 31 114
e 31 490
e 31 248
e 31 905
e 31 241
e 33 600
e 33 552
e 33 452
e 33 40
e 33 350
e 33 237
e 34 210
e 34 892
e 34 329
e 34 177
e 34 677
e 35 286
e 35 880
e 35 734
e 35 84
e 38 437
e 38 902
e 38 733
e 38 907
e 39 205
e 39 263
e 39 233
e 40 408
e 40 775
e 40 963
e 41 530
e 41 674
e 41 242
e 41 236
e 41 342
e 44 409
e 44 187
e 44 484
e 45 645
e 45 710
e 45 665
e 46 355
e 46 197
e 46 379
e 46 682
e 46 96
e 46 883
e 47 592
e 47 931
e 47 436
e 48 557
e 48 471
e 48 100
e 48 915
e 48 424
e 49 114
e 49 923
e 49 802
e 52 215
e 52 521
e 52 501
e 54 500
e 54 313
e 54 650
e 54 711
e 54 761
e 54 651
e 55 354
e 55 431
e 55 281
e 60 488
e 60 140
e 60 96
e 60 792
e 60 424
e 60 173
e 60 889
e 61 553
e 61 999
e 61 252
e 62 924
e 62 679
e 62 202
e 63 181
e 63 267
e 63 760
e 63 265
e 63 563
e 63 574
e 64 711
e 64 96
e 64 953
e 64 121
e 66 576
e 66 195
e 66 364
e 66 81
e 66 904
e 66 452
e 66 318
e 68 604
e 68 218
e 68 508
e 68 261
e 68 985
e 68 398
e 68 902
e 69 656
e 69 455
e 69 692
e 69 887
e 70 650
e 70 737
e 70 957
e 72 824
e 72 734
e 72 579
e 72 563
e 73 491
e 73 725
e 73 942
e 74 313
e 74 955
e 74 796
e 74 276
e 75 772
e 75 353
e 75 550
e 75 678
e 75 467
e 75 784
e 78 161
e 78 227
e 78 996
e 78 688
e 78 252
e 80 388
e 80 423
e 80 779
e 80 651
e 81 771
e 81 155
e 81 796
e 81 405
e 81 545
e 81 202
e 83 749
e 83 653
e 83 458
e 83 106
e 84 906
e 84 668
e 84 858
e 85 647
e 85 497
e 85 598
e 85 571
e 86 155
e 86 929
e 86 254
e 87 118
e 87 834
e 87 689
e 90 480
e 90 193
e 90 665
e 91 893
e 91 917
e 91 428
e 92 710
e 92 207
e 92 811
e 92 425
e 92 244
e 92 622
e 95 349
e 95 986
e 95 879
e 96 783
e 96 759
e 96 977
e 97 212
e 97 846
e 97 159
e 97 451
e 97 517
e 99 556
e 99 469
e 99 672
e 100 433
e 100 263
e 100 197
e 100 624
e 101 643
e 101 712
e 101 313
e 101 435
e 101 850
e 101 110
e 101 957
e 101 902
e 102 319
e 102 992
e 102 318
e 103 765
e 103 838
e 103 438
e 103 630
e 104 335
e 104 326
e 104 522
e 104 730
e 105 819
e 105 993
e 105 527
e 106 645
e 106 195
e 109 733
e 109 750
e 109 518
e 109 236
e 109 717
e 110 480
e 110 518
e 110 121
e 112 549
e 112 197
e 112 307
e 112 114
e 112 810
e 112 228
e 112 761
e 112 554
e 112 402
e 114 919
e 114 765
e 114 978
e 114 210
e 114 449
e 114 438
e 117 995
e 117 366
e 117 635
e 117 850
e 117 654
e 118 672
e 118 734
e 118 857
e 118 238
e 118 424
e 119 443
e 119 157
e 119 318
e 119 497
e 119 128
e 120 384
e 120 898
e 120 574
e 120 765
e 121 819
e 121 716
e 121 186
e 122 308
e 122 709
e 122 142
e 122 971
e 123 197
e 123 124
e 124 589
e 124 758
e 126 977
e 126 598
e 126 608
e 126 724
e 126 411
e 126 245
e 126 365
e 128 921
e 128 675
e 128 331
e 128 268
e 129 556
e 129 374
e 129 467
e 130 652
e 130 468
e 130 296
e 130 675
e 130 802
e 131 691
e 131 483
e 131 672
e 132 433
e 132 718
e 132 823
e 132 442
e 134 154
e 134 372
e 134 462
e 134 742
e 134 778
e 135 864
e 135 797
e 135 741
e 135 668
e 135 809
e 136 264
e 136 386
e 136 599
e 136 210
e 137 640
e 137 622
e 137 495
e 137 652
e 138 509
e 138 786
e 138 463
e 138 168
e 138 434
e 138 292
e 139 811
e 139 612
e 139 399
e 139 557
e 140 437
e 140 599
e 141 800
e 141 889
e 141 957
e 142 519
e 142 767
e 142 944
e 142 942
e 142 807
e 143 602
e 143 824
e 143 564
e 143 604
e 144 967
e 144 871
e 144 593
e 146 601
e 146 711
e 146 182
e 147 447
e 147 692
e 147 303
e 147 281
e 148 449
e 148 550
e 148 963
e 148 299
e 148 390
e 148 673
e 148 442
e 149 291
e 149 619
e 149 355
e 149 622
e 149 275
e 149 702
e 150 776
e 150 696
e 150 391
e 150 525
e 152 737
e 152 355
e 152 285
e 152 515
e 153 708
e 153 399
e 153 508
e 153 173
e 154 699
e 154 984
e 154 187
e 154 867
e 155 800
e 155 269
e 155 747
e 155 733
e 156 399
e 156 419
e 156 335
e 156 863
e 156 987
e 156 757
e 156 246
e 157 307
e 157 845
e 157 804
e 157 889
e 157 546
e 159 185
e 159 496
e 160 631
e 160 643
e 160 556
e 160 444
e 160 804
e 160 575
e 160 508
e 160 743
e 161 572
e 161 786
e 161 304
e 161 962
e 162 755
e 162 960
e 162 821
e 162 774
e 162 529
e 162 982
e 162 750
e 163 313
e 163 736
e 163 177
e 163 202
e 164 858
e 164 210
e 166 827
e 166 797
e 166 879
e 166 279
e 166 241
e 166 801
e 166 425
e 167 598
e 167 426
e 167 838
e 168 894
e 168 388
e 168 411
e 169 696
e 169 373
e 169 349
e 172 726
e 172 489
e 172 468
e 172 302
e 172 428
e 172 829
e 173 632
e 174 231
e 174 293
e 174 929
e 174 365
e 174 674
e 174 560
e 175 234
e 175 374
e 175 613
e 175 226
e 176 865
e 176 746
e 176 838
e 176 181
e 176 592
e 176 189
e 176 395
e 177 810
e 177 553
e 177 631
e 177 837
e 177 552
e 178 408
e 178 432
e 178 970
e 181 304
e 181 382
e 181 880
e 182 320
e 182 672
e 182 205
e 182 735
e 182 791
e 184 468
e 184 219
e 184 670
e 184 928
e 185 645
e 185 736
e 185 243
e 186 521
e 186 434
e 186 892
e 186 898
e 186 233
e 186 548
e 187 822
e 187 996
e 187 526
e 187 558
e 187 741
e 187 685
e 189 550
e 189 854
e 193 574
e 193 194
e 193 796
e 193 347
e 193 768
e 193 972
e 193 420
e 194 218
e 194 221
e 194 535
e 195 761
e 195 859
e 195 311
e 195 603
e 196 201
e 196 250
e 196 999
e 196 624
e 196 639
e 197 686
e 197 926
e 199 745
e 199 701
e 199 468
e 200 295
e 200 364
e 200 286
e 200 823
e 200 759
e 200 236
e 201 328
e 201 652
e 201 252
e 201 882
e 202 940
e 202 723
e 202 253
e 204 764
e 204 506
e 204 627
e 204 778
e 204 564
e 204 226
e 204 605
e 205 506
e 205 526
e 206 735
e 206 774
e 206 991
e 206 987
e 206 354
e 207 511
e 207 219
e 207 750
e 207 421
e 208 545
e 208 548
e 210 449
e 210 436
e 210 932
e 210 418
e 211 610
e 211 760
e 211 552
e 211 542
e 211 651
e 211 683
e 211 585
e 211 605
e 211 950
e 211 253
e 212 281
e 212 826
e 212 292
e 212 959
e 212 259
e 212 582
e 213 219
e 213 433
e 213 386
e 213 767
e 213 479
e 213 905
e 214 438
e 214 750
e 214 949
e 215 474
e 215 684
e 218 632
e 219 999
e 219 260
e 220 226
e 220 438
e 220 622
e 220 735
e 220 594
e 221 291
e 221 462
e 221 913
e 221 382
e 223 403
e 223 657
e 223 974
e 223 778
e 223 924
e 223 700
e 224 569
e 224 560
e 226 301
e 226 309
e 226 704
e 226 524
e 227 860
e 227 426
e 227 654
e 227 804
e 227 955
e 227 392
e 228 268
e 228 689
e 228 563
e 231 475
e 231 522
e 231 620
e 232 765
e 232 271
e 232 922
e 233 427
e 233 783
e 234 360
e 234 995
e 235 419
e 235 454
e 235 914
e 236 646
e 236 353
e 236 856
e 236 688
e 237 833
e 237 418
e 237 624
e 237 958
e 237 397
e 237 876
e 237 653
e 238 469
e 238 278
e 238 970
e 238 849
e 238 547
e 238 452
e 238 548
e 240 287
e 240 795
e 240 461
e 240 711
e 241 863
e 242 582
e 242 993
e 242 795
e 243 865
e 243 364
e 243 884
e 243 557
e 243 533
e 244 438
e 244 430
e 244 597
e 245 489
e 245 605
e 245 829
e 246 249
e 246 630
e 246 584
e 246 579
e 247 336
e 247 884
e 247 275
e 247 498
e 248 552
e 248 479
e 249 423
e 249 490
e 249 769
e 250 483
e 250 294
e 250 932
e 250 486
e 250 484
e 250 392
e 251 370
e 251 762
e 251 547
e 252 535
e 252 798
e 252 302
e 253 668
e 253 556
e 253 883
e 253 652
e 253 357
e 254 308
e 254 404
e 254 912
e 254 821
e 254 831
e 254 689
e 256 958
e 256 835
e 256 594
e 257 545
e 257 919
e 257 483
e 257 866
e 257 825
e 259 576
e 259 978
e 259 441
e 259 370
e 260 526
e 260 309
e 261 679
e 261 703
e 263 420
e 263 886
e 263 559
e 263 386
e 263 696
e 264 643
e 264 847
e 264 319
e 264 711
e 265 688
e 267 794
e 267 597
e 267 311
e 268 698
e 268 420
e 269 949
e 269 538
e 271 655
e 271 723
e 271 896
e 274 856
e 274 923
e 275 522
e 275 598
e 275 800
e 276 554
e 276 789
e 276 501
e 276 660
e 276 572
e 276 558
e 277 529
e 277 537
e 277 491
e 278 291
e 278 546
e 279 564
e 279 834
e 279 516
e 279 769
e 279 392
e 281 568
e 281 772
e 281 793
e 283 724
e 283 881
e 283 749
e 283 921
e 283 379
e 285 879
e 285 610
e 286 550
e 286 776
e 286 747
e 286 368
e 286 311
e 286 764
e 287 409
e 287 309
e 287 604
e 288 903
e 288 416
e 288 587
e 290 360
e 290 535
e 290 572
e 290 435
e 291 743
e 291 474
e 291 411
e 292 616
e 292 628
e 293 375
e 293 675
e 293 725
e 293 340
e 294 368
e 294 524
e 294 419
e 294 388
e 295 880
e 295 526
e 295 818
e 296 611
e 296 330
e 296 432
e 296 426
e 296 902
e 296 788
e 296 405
e 296 484
e 299 889
e 299 936
e 299 687
e 299 385
e 299 324
e 300 427
e 300 666
e 300 404
e 300 712
e 300 978
e 301 625
e 301 833
e 302 426
e 302 742
e 302 845
e 302 521
e 302 990
e 303 575
e 303 933
e 303 721
e 303 496
e 303 377
e 303 527
e 303 427
e 303 345
e 304 841
e 304 627
e 304 449
e 304 964
e 304 356
e 304 767
e 304 650
e 304 774
e 307 506
e 307 786
e 308 605
e 308 987
e 308 876
e 308 822
e 308 328
e 308 884
e 308 759
e 308 475
e 308 538
e 309 882
e 309 889
e 309 993
e 309 876
e 310 837
e 310 650
e 310 724
e 310 495
e 310 980
e 311 677
e 313 720
e 313 915
e 318 563
e 319 798
e 319 611
e 320 709
e 320 930
e 324 600
e 324 539
e 324 728
e 326 942
e 326 702
e 326 986
e 328 839
e 328 833
e 328 571
e 329 841
e 329 479
e 329 711
e 329 712
e 329 630
e 330 337
e 330 677
e 330 678
e 331 419
e 331 971
e 331 701
e 334 345
e 334 643
e 334 902
e 334 855
e 335 752
e 335 484
e 336 871
e 336 688
e 337 409
e 337 882
e 340 471
e 340 751
e 340 964
e 340 504
e 342 876
e 342 476
e 343 827
e 343 903
e 343 881
e 343 860
e 345 696
e 345 777
e 345 792
e 345 924
e 347 483
e 347 813
e 347 774
e 348 700
e 348 578
e 348 923
e 348 801
e 349 964
e 349 604
e 349 423
e 349 738
e 350 881
e 350 507
e 350 568
e 350 889
e 350 369
e 350 980
e 350 550
e 353 721
e 353 521
e 353 395
e 353 559
e 354 416
e 355 710
e 355 434
e 355 831
e 356 428
e 356 726
e 357 421
e 357 531
e 357 395
e 357 778
e 357 540
e 357 761
e 357 839
e 357 556
e 359 669
e 359 446
e 359 686
e 359 393
e 359 846
e 360 552
e 361 413
e 361 475
e 361 672
e 361 387
e 361 934
e 361 388
e 362 960
e 362 980
e 362 613
e 364 503
e 364 741
e 364 620
e 365 855
e 366 761
e 366 710
e 366 379
e 366 779
e 366 915
e 366 691
e 366 552
e 368 917
e 368 614
e 369 484
e 369 892
e 369 815
e 369 550
e 369 733
e 369 535
e 370 640
e 370 374
e 371 825
e 371 530
e 371 412
e 372 575
e 372 468
e 372 379
e 372 603
e 372 559
e 372 847
e 373 608
e 373 800
e 374 719
e 375 573
e 375 655
e 375 906
e 375 448
e 377 789
e 377 961
e 379 861
e 379 803
e 379 390
e 381 384
e 381 494
e 381 752
e 382 653
e 382 483
e 382 602
e 382 761
e 384 594
e 384 984
e 385 431
e 385 622
e 385 666
e 385 921
e 386 921
e 386 942
e 386 507
e 386 595
e 387 824
e 387 404
e 387 446
e 387 813
e 387 720
e 387 575
e 387 747
e 388 472
e 388 657
e 390 903
e 390 990
e 390 683
e 391 498
e 391 632
e 392 843
e 392 654
e 392 906
e 393 678
e 393 755
e 393 849
e 393 901
e 393 892
e 397 500
e 397 444
e 398 678
e 398 789
e 399 909
e 399 712
e 399 560
e 402 712
e 402 689
e 402 426
e 402 427
e 403 857
e 403 726
e 403 673
e 404 751
e 404 592
e 404 934
e 405 711
e 405 459
e 405 718
e 406 695
e 406 417
e 406 530
e 406 823
e 408 838
e 408 831
e 409 725
e 409 809
e 409 726
e 409 574
e 411 485
e 411 591
e 411 500
e 411 479
e 412 833
e 412 944
e 412 843
e 413 598
e 413 658
e 413 553
e 414 917
e 414 766
e 414 443
e 416 632
e 416 965
e 416 951
e 417 765
e 417 789
e 418 495
e 418 476
e 418 832
e 418 903
e 419 458
e 419 498
e 419 470
e 419 899
e 420 990
e 420 441
e 420 501
e 421 539
e 421 427
e 423 813
e 423 931
e 424 974
e 424 568
e 424 639
e 424 735
e 424 970
e 425 660
e 425 980
e 425 743
e 427 908
e 428 907
e 428 878
e 430 847
e 430 538
e 430 971
e 430 726
e 431 956
e 431 776
e 431 533
e 431 982
e 431 943
e 432 574
e 433 542
e 433 444
e 434 505
e 434 977
e 434 970
e 435 721
e 435 484
e 435 608
e 436 972
e 436 708
e 436 484
e 437 522
e 438 718
e 441 447
e 442 929
e 442 640
e 442 869
e 442 771
e 443 854
e 443 484
e 444 826
e 444 972
e 444 548
e 444 451
e 444 627
e 445 670
e 445 965
e 445 699
e 445 843
e 446 465
e 446 884
e 446 781
e 447 665
e 447 914
e 447 959
e 448 725
e 448 661
e 448 666
e 448 928
e 448 943
e 448 656
e 448 728
e 449 804
e 449 681
e 449 665
e 449 883
e 449 985
e 451 459
e 451 880
e 452 804
e 454 854
e 454 834
e 455 810
e 455 599
e 455 839
e 458 915
e 459 552
e 461 990
e 461 726
e 462 593
e 463 786
e 463 904
e 463 736
e 463 928
e 463 804
e 465 628
e 467 695
e 467 771
e 468 603
e 468 699
e 469 656
e 470 908
e 470 801
e 470 556
e 470 709
e 471 745
e 471 483
e 471 699
e 471 936
e 472 612
e 472 893
e 472 841
e 472 869
e 472 843
e 474 670
e 474 540
e 474 571
e 474 915
e 474 650
e 474 717
e 476 542
e 476 835
e 479 818
e 479 687
e 479 865
e 480 835
e 482 505
e 482 669
e 482 796
e 482 940
e 483 668
e 483 990
e 483 692
e 484 967
e 484 962
e 485 491
e 485 972
e 485 832
e 486 672
e 486 953
e 488 823
e 488 757
e 489 688
e 489 742
e 490 582
e 490 491
e 494 962
e 494 681
e 494 644
e 495 878
e 495 658
e 495 573
e 496 529
e 497 597
e 497 912
e 497 708
e 498 686
e 498 950
e 498 749
e 498 788
e 500 519
e 500 997
e 500 834
e 500 924
e 500 961
e 501 572
e 503 805
e 503 592
e 504 538
e 504 771
e 505 517
e 505 509
e 505 569
e 505 686
e 506 702
e 506 966
e 506 956
e 507 701
e 508 971
e 508 833
e 508 546
e 508 743
e 508 823
e 508 882
e 509 644
e 509 704
e 509 852
e 509 882
e 509 758
e 511 781
e 511 658
e 512 864
e 512 613
e 512 592
e 513 969
e 513 546
e 513 920
e 514 758
e 514 521
e 514 778
e 515 573
e 515 973
e 515 570
e 516 720
e 516 952
e 517 563
e 517 871
e 518 666
e 518 531
e 519 591
e 519 689
e 521 656
e 521 850
e 521 716
e 522 772
e 524 687
e 527 710
e 527 730
e 529 545
e 530 741
e 531 677
e 531 685
e 531 548
e 531 728
e 531 746
e 533 971
e 533 777
e 533 563
e 535 953
e 537 717
e 537 749
e 537 827
e 537 848
e 538 670
e 538 571
e 538 926
e 539 792
e 539 759
e 540 755
e 541 707
e 541 997
e 542 901
e 542 587
e 542 635
e 545 616
e 545 615
e 547 559
e 547 643
e 549 961
e 549 589
e 550 950
e 550 891
e 550 751
e 553 881
e 554 760
e 554 764
e 554 685
e 554 696
e 555 826
e 555 986
e 555 587
e 555 800
e 556 633
e 556 575
e 557 738
e 557 716
e 557 930
e 558 633
e 558 785
e 559 913
e 560 741
e 560 665
e 560 864
e 568 991
e 569 574
e 570 757
e 570 944
e 573 646
e 574 711
e 574 752
e 575 702
e 575 793
e 575 703
e 576 926
e 578 884
e 578 775
e 579 645
e 579 593
e 582 786
e 582 585
e 582 831
e 582 850
e 584 914
e 584 982
e 585 898
e 587 698
e 587 802
e 589 799
e 589 775
e 589 827
e 591 924
e 591 630
e 592 776
e 592 974
e 594 679
e 594 919
e 595 599
e 595 611
e 595 643
e 595 925
e 597 612
e 597 867
e 598 623
e 598 604
e 598 752
e 599 800
e 599 807
e 600 615
e 600 720
e 600 957
e 601 992
e 601 829
e 601 793
e 602 737
e 602 625
e 602 684
e 602 624
e 605 843
e 605 956
e 608 615
e 610 907
e 611 997
e 612 932
e 613 815
e 614 944
e 614 899
e 615 835
e 616 933
e 617 755
e 617 858
e 617 651
e 617 908
e 619 783
e 619 650
e 620 959
e 620 882
e 622 951
e 623 850
e 623 922
e 623 887
e 623 801
e 624 920
e 624 877
e 625 638
e 625 848
e 627 928
e 628 964
e 630 861
e 631 821
e 631 643
e 632 698
e 633 962
e 635 643
e 635 646
e 638 887
e 638 765
e 638 794
e 639 982
e 639 858
e 640 695
e 643 794
e 643 800
e 643 789
e 644 768
e 645 951
e 646 848
e 646 674
e 646 925
e 647 749
e 647 970
e 651 955
e 651 821
e 651 850
e 651 943
e 652 762
e 652 719
e 652 875
e 653 952
e 654 909
e 655 880
e 655 944
e 656 878
e 657 959
e 660 891
e 661 919
e 661 846
e 661 779
e 666 925
e 666 993
e 668 688
e 669 992
e 672 928
e 673 794
e 674 772
e 674 892
e 674 932
e 675 827
e 675 958
e 675 766
e 677 709
e 677 990
e 677 964
e 679 791
e 682 854
e 682 849
e 683 904
e 684 688
e 684 997
e 686 886
e 686 708
e 687 943
e 687 750
e 688 995
e 692 949
e 692 772
e 695 785
e 695 915
e 696 839
e 699 764
e 699 809
e 699 942
e 700 875
e 700 932
e 702 776
e 703 933
e 703 798
e 704 856
e 707 717
e 707 985
e 708 990
e 710 801
e 710 969
e 710 944
e 711 785
e 712 832
e 719 843
e 720 922
e 721 912
e 721 863
e 721 899
e 723 792
e 723 764
e 725 804
e 726 796
e 730 849
e 734 858
e 734 738
e 735 831
e 736 905
e 736 866
e 736 760
e 737 757
e 737 857
e 738 811
e 740 982
e 740 784
e 740 778
e 741 891
e 741 753
e 742 854
e 743 953
e 745 845
e 746 795
e 747 803
e 747 913
e 750 987
e 751 864
e 752 972
e 753 995
e 753 894
e 753 877
e 755 799
e 755 881
e 758 859
e 758 860
e 758 784
e 759 999
e 759 854
e 759 826
e 760 801
e 761 826
e 764 785
e 766 894
e 766 832
e 768 958
e 768 809
e 769 863
e 774 956
e 775 821
e 778 823
e 778 854
e 778 848
e 779 924
e 781 922
e 783 855
e 788 893
e 788 964
e 788 837
e 789 875
e 791 803
e 792 892
e 792 955
e 794 995
e 794 801
e 794 834
e 795 931
e 797 934
e 798 802
e 798 877
e 799 826
e 800 887
e 803 878
e 803 999
e 803 825
e 804 818
e 804 847
e 805 875
e 805 973
e 807 815
e 809 894
e 809 965
e 809 992
e 810 909
e 810 971
e 813 866
e 817 997
e 817 928
e 817 831
e 818 869
e 819 852
e 821 892
e 822 907
e 822 863
e 826 869
e 829 930
e 831 869
e 831 929
e 832 906
e 832 904
e 833 931
e 835 906
e 838 920
e 839 974
e 841 914
e 845 933
e 848 907
e 848 926
e 849 990
e 850 852
e 855 887
e 855 966
e 856 950
e 857 919
e 859 869
e 861 866
e 861 960
e 863 978
e 863 942
e 864 936
e 866 875
e 867 923
e 875 880
e 876 933
e 877 879
e 883 892
e 883 905
e 884 903
e 886 923
e 889 972
e 891 984
e 893 978
e 894 926
e 894 960
e 896 917
e 896 982
e 901 969
e 903 978
e 904 936
e 905 938
e 907 967
e 908 910
e 908 970
e 920 949
e 922 938
e 923 950
e 925 938
e 930 936
e 930 973
e 930 997
e 931 934
e 932 987
e 934 991
e 938 993
e 940 984
e 940 967
e 943 966
e 952 963
e 972 985
e 982 996
